;symbolic execution tree
(push)
(assert (le x0 java.lang.Object))
(check-sat)
(push)
(assert (le x1 java.lang.Object))
(check-sat)
(push)
(assert (le x2 java.lang.Object))
(check-sat)
(push)
(assert (le x3 java.lang.Object))
(check-sat)
(push)
(assert (le x4 java.lang.Object))
(check-sat)
(push)
(assert (le x5 java.lang.Object))
(check-sat)
(push)
(assert (le x6 java.lang.Object))
(check-sat)
(push)
(assert (le x7 java.lang.Object))
(check-sat)
(push)
(assert (= x7 java.lang.String))
(check-sat)
(pop)
(push)
(assert (not (= x7 java.lang.String)))
(check-sat)
(push)
(assert (= x7 java.lang.String))
(check-sat)
(pop)
(push)
(assert (not (= x7 java.lang.String)))
(check-sat)
(pop)
(push)
(assert (le x0 java.util.LinkedList))
(check-sat)
(push)
(assert (= x6 java.lang.String))
(check-sat)
(pop)
(push)
(assert (not (= x6 java.lang.String)))
(check-sat)
(pop)
(push)
(assert (= x1 java.lang.String))
(check-sat)
(pop)
(push)
(assert (not (= x1 java.lang.String)))
(check-sat)
(push)
(assert (not (le x4 com.lowagie.text.pdf.PdfObject)))
(check-sat)
(push)
(assert (le x4 java.lang.Object))
(check-sat)
(pop)
(push)
(assert (not (le x4 java.lang.Object)))
(check-sat)
(pop)
(pop)
(push)
(assert (le x4 com.lowagie.text.pdf.PdfObject))
(check-sat)
(pop)
(pop)
(pop)
(push)
(assert (le x0 org.dom4j.tree.ContentListFacade))
(check-sat)
(pop)
(push)
(assert (le x0 com.lowagie.text.Cell))
(check-sat)
(pop)
(push)
(assert (not (le x0 java.util.AbstractList)))
(check-sat)
(push)
(assert (le x0 java.util.AbstractCollection))
(check-sat)
(push)
(assert (le x1 com.lowagie.text.pdf.ByteBuffer))
(check-sat)
(push)
(assert (= x7 java.lang.String))
(check-sat)
(pop)
(push)
(assert (not (= x7 java.lang.String)))
(check-sat)
(pop)
(pop)
(push)
(assert (not (le x1 com.lowagie.text.pdf.ByteBuffer)))
(check-sat)
(pop)
(push)
(assert (le x0 java.util.ArrayList))
(check-sat)
(pop)
(push)
(assert (not (le x0 java.util.ArrayList)))
(check-sat)
(push)
(assert (le x3 java.util.HashMap))
(check-sat)
(pop)
(push)
(assert (not (le x3 java.util.HashMap)))
(check-sat)
(pop)
(pop)
(push)
(assert (= x5 java.lang.Integer))
(check-sat)
(push)
(assert (= x3 java.lang.String))
(check-sat)
(pop)
(push)
(assert (not (= x3 java.lang.String)))
(check-sat)
(pop)
(pop)
(push)
(assert (not (= x5 java.lang.Integer)))
(check-sat)
(pop)
(push)
(assert (le x5 com.lowagie.text.pdf.ByteBuffer))
(check-sat)
(push)
(assert (le x2 com.lowagie.text.pdf.RandomAccessFileOrArray))
(check-sat)
(pop)
(push)
(assert (not (le x2 com.lowagie.text.pdf.RandomAccessFileOrArray)))
(check-sat)
(pop)
(push)
(assert (le x5 com.lowagie.text.pdf.ByteBuffer))
(check-sat)
(pop)
(push)
(assert (not (le x5 com.lowagie.text.pdf.ByteBuffer)))
(check-sat)
(pop)
(pop)
(push)
(assert (not (le x5 com.lowagie.text.pdf.ByteBuffer)))
(check-sat)
(push)
(assert (le x0 java.util.ArrayList))
(check-sat)
(pop)
(push)
(assert (not (le x0 java.util.ArrayList)))
(check-sat)
(push)
(assert (= x4 java.lang.StringBuffer))
(check-sat)
(pop)
(push)
(assert (not (= x4 java.lang.StringBuffer)))
(check-sat)
(pop)
(pop)
(pop)
(push)
(assert (= x7 java.lang.String))
(check-sat)
(pop)
(push)
(assert (not (= x7 java.lang.String)))
(check-sat)
(pop)
(pop)
(pop)
(push)
(assert (le x0 java.util.TreeSet))
(check-sat)
(pop)
(push)
(assert (le x0 org.dom4j.tree.BackedList))
(check-sat)
(pop)
(push)
(assert (not (le x0 com.lowagie.text.Phrase)))
(check-sat)
(push)
(assert (not (le x0 com.lowagie.text.Section)))
(check-sat)
(push)
(assert (not (le x0 org.dom4j.tree.BackedList)))
(check-sat)
(push)
(assert (le x0 java.util.ArrayList))
(check-sat)
(pop)
(pop)
(pop)
(pop)
(push)
(assert (le x0 com.lowagie.text.Section))
(check-sat)
(pop)
(push)
(assert (le x0 com.lowagie.text.Phrase))
(check-sat)
(pop)
(push)
(assert (le x0 java.util.Vector))
(check-sat)
(pop)
(push)
(assert (le x0 java.util.HashSet))
(check-sat)
(push)
(assert (le x0 java.util.ArrayList))
(check-sat)
(pop)
(push)
(assert (not (le x0 java.util.ArrayList)))
(check-sat)
(pop)
(pop)
(push)
(assert (not (le x0 java.util.Vector)))
(check-sat)
(push)
(assert (not (le x0 java.util.ArrayList)))
(check-sat)
(push)
(assert (le x0 java.util.AbstractList))
(check-sat)
(push)
(assert (not (le x0 org.dom4j.tree.ContentListFacade)))
(check-sat)
(push)
(assert (= x2 java.lang.String))
(check-sat)
(pop)
(push)
(assert (not (= x2 java.lang.String)))
(check-sat)
(pop)
(push)
(assert (le x5 com.lowagie.text.pdf.PdfObject))
(check-sat)
(pop)
(push)
(assert (not (le x5 com.lowagie.text.pdf.PdfObject)))
(check-sat)
(pop)
(push)
(assert (= x2 java.lang.StringBuffer))
(check-sat)
(pop)
(push)
(assert (not (= x2 java.lang.StringBuffer)))
(check-sat)
(pop)
(push)
(assert (= x3 java.lang.StringBuffer))
(check-sat)
(pop)
(push)
(assert (not (= x3 java.lang.StringBuffer)))
(check-sat)
(push)
(assert (= x7 java.lang.String))
(check-sat)
(pop)
(push)
(assert (not (= x7 java.lang.String)))
(check-sat)
(pop)
(push)
(assert (= x7 java.lang.String))
(check-sat)
(pop)
(push)
(assert (not (= x7 java.lang.String)))
(check-sat)
(push)
(assert (= x3 java.lang.StringBuffer))
(check-sat)
(pop)
(push)
(assert (not (= x3 java.lang.StringBuffer)))
(check-sat)
(pop)
(pop)
(pop)
(pop)
(pop)
(pop)
(pop)
(push)
(assert (= x2 java.lang.StringBuffer))
(check-sat)
(push)
(assert (= x5 java.lang.String))
(check-sat)
(pop)
(push)
(assert (not (= x5 java.lang.String)))
(check-sat)
(push)
(assert (= x6 java.lang.String))
(check-sat)
(pop)
(push)
(assert (not (= x6 java.lang.String)))
(check-sat)
(pop)
(push)
(assert (= x0 java.lang.String))
(check-sat)
(pop)
(push)
(assert (not (= x0 java.lang.String)))
(check-sat)
(push)
(assert (le x1 com.lowagie.text.pdf.ByteBuffer))
(check-sat)
(pop)
(push)
(assert (not (le x1 com.lowagie.text.pdf.ByteBuffer)))
(check-sat)
(pop)
(push)
(assert (le x6 com.lowagie.text.pdf.PdfObject))
(check-sat)
(pop)
(push)
(assert (not (le x6 com.lowagie.text.pdf.PdfObject)))
(check-sat)
(pop)
(pop)
(pop)
(push)
(assert (= x3 java.lang.StringBuffer))
(check-sat)
(pop)
(push)
(assert (not (= x3 java.lang.StringBuffer)))
(check-sat)
(push)
(assert (le x0 org.dom4j.Node))
(check-sat)
(pop)
(push)
(assert (not (le x0 org.dom4j.Node)))
(check-sat)
(pop)
(pop)
(push)
(assert (= x7 java.lang.String))
(check-sat)
(pop)
(push)
(assert (not (= x7 java.lang.String)))
(check-sat)
(push)
(assert (= x1 java.lang.StringBuffer))
(check-sat)
(pop)
(push)
(assert (not (= x1 java.lang.StringBuffer)))
(check-sat)
(pop)
(pop)
(pop)
(push)
(assert (not (= x2 java.lang.StringBuffer)))
(check-sat)
(pop)
(push)
(assert (= x7 java.lang.String))
(check-sat)
(pop)
(push)
(assert (not (= x7 java.lang.String)))
(check-sat)
(push)
(assert (= x7 java.lang.String))
(check-sat)
(pop)
(push)
(assert (not (= x7 java.lang.String)))
(check-sat)
(pop)
(push)
(assert (le x2 com.lowagie.text.pdf.PdfObject))
(check-sat)
(pop)
(push)
(assert (not (le x2 com.lowagie.text.pdf.PdfObject)))
(check-sat)
(pop)
(push)
(assert (= x7 java.lang.String))
(check-sat)
(pop)
(push)
(assert (not (= x7 java.lang.String)))
(check-sat)
(push)
(assert (= x4 java.lang.String))
(check-sat)
(push)
(assert (= x4 java.lang.String))
(check-sat)
(pop)
(push)
(assert (not (= x4 java.lang.String)))
(check-sat)
(pop)
(pop)
(push)
(assert (not (= x4 java.lang.String)))
(check-sat)
(pop)
(pop)
(push)
(assert (= x6 java.lang.reflect.Field))
(check-sat)
(push)
(assert (= x2 java.lang.String))
(check-sat)
(pop)
(push)
(assert (not (= x2 java.lang.String)))
(check-sat)
(push)
(assert (= x6 java.lang.reflect.Field))
(check-sat)
(pop)
(push)
(assert (not (= x6 java.lang.reflect.Field)))
(check-sat)
(pop)
(pop)
(push)
(assert (= x5 java.lang.Integer))
(check-sat)
(pop)
(push)
(assert (not (= x5 java.lang.Integer)))
(check-sat)
(pop)
(push)
(assert (= x3 java.lang.Integer))
(check-sat)
(pop)
(push)
(assert (not (= x3 java.lang.Integer)))
(check-sat)
(pop)
(pop)
(push)
(assert (not (= x6 java.lang.reflect.Field)))
(check-sat)
(pop)
(push)
(assert (= x3 java.lang.Integer))
(check-sat)
(push)
(assert (= x6 java.lang.StringBuffer))
(check-sat)
(pop)
(push)
(assert (not (= x6 java.lang.StringBuffer)))
(check-sat)
(pop)
(push)
(assert (= x7 java.lang.String))
(check-sat)
(pop)
(push)
(assert (not (= x7 java.lang.String)))
(check-sat)
(pop)
(pop)
(push)
(assert (not (= x3 java.lang.Integer)))
(check-sat)
(pop)
(pop)
(push)
(assert (= x3 java.lang.String))
(check-sat)
(pop)
(push)
(assert (not (= x3 java.lang.String)))
(check-sat)
(push)
(assert (le x2 com.lowagie.text.pdf.ByteBuffer))
(check-sat)
(push)
(assert (= x0 java.lang.StringBuffer))
(check-sat)
(pop)
(push)
(assert (not (= x0 java.lang.StringBuffer)))
(check-sat)
(pop)
(push)
(assert (= x0 java.lang.StringBuffer))
(check-sat)
(pop)
(push)
(assert (not (= x0 java.lang.StringBuffer)))
(check-sat)
(pop)
(pop)
(push)
(assert (not (le x2 com.lowagie.text.pdf.ByteBuffer)))
(check-sat)
(pop)
(push)
(assert (= x5 java.lang.String))
(check-sat)
(pop)
(push)
(assert (not (= x5 java.lang.String)))
(check-sat)
(push)
(assert (le x2 com.lowagie.text.pdf.PdfObject))
(check-sat)
(pop)
(push)
(assert (not (le x2 com.lowagie.text.pdf.PdfObject)))
(check-sat)
(push)
(assert (le x6 com.lowagie.text.pdf.ByteBuffer))
(check-sat)
(pop)
(push)
(assert (not (le x6 com.lowagie.text.pdf.ByteBuffer)))
(check-sat)
(pop)
(push)
(assert (= x5 java.lang.String))
(check-sat)
(pop)
(push)
(assert (not (= x5 java.lang.String)))
(check-sat)
(pop)
(pop)
(push)
(assert (= x0 java.lang.StringBuffer))
(check-sat)
(pop)
(push)
(assert (not (= x0 java.lang.StringBuffer)))
(check-sat)
(pop)
(pop)
(pop)
(push)
(assert (le x6 com.lowagie.text.pdf.PdfObject))
(check-sat)
(push)
(assert (= x1 java.lang.StringBuffer))
(check-sat)
(pop)
(push)
(assert (not (= x1 java.lang.StringBuffer)))
(check-sat)
(pop)
(push)
(assert (= x2 java.lang.StringBuffer))
(check-sat)
(pop)
(push)
(assert (not (= x2 java.lang.StringBuffer)))
(check-sat)
(push)
(assert (le x0 com.lowagie.text.pdf.ByteBuffer))
(check-sat)
(pop)
(push)
(assert (not (le x0 com.lowagie.text.pdf.ByteBuffer)))
(check-sat)
(pop)
(pop)
(push)
(assert (le x3 com.lowagie.text.pdf.ByteBuffer))
(check-sat)
(pop)
(push)
(assert (not (le x3 com.lowagie.text.pdf.ByteBuffer)))
(check-sat)
(push)
(assert (= x4 java.lang.StringBuffer))
(check-sat)
(push)
(assert (= x2 java.lang.String))
(check-sat)
(pop)
(push)
(assert (not (= x2 java.lang.String)))
(check-sat)
(pop)
(pop)
(push)
(assert (not (= x4 java.lang.StringBuffer)))
(check-sat)
(pop)
(push)
(assert (le x3 com.lowagie.text.pdf.ByteBuffer))
(check-sat)
(pop)
(push)
(assert (not (le x3 com.lowagie.text.pdf.ByteBuffer)))
(check-sat)
(pop)
(push)
(assert (le x3 com.lowagie.text.pdf.ByteBuffer))
(check-sat)
(pop)
(push)
(assert (not (le x3 com.lowagie.text.pdf.ByteBuffer)))
(check-sat)
(push)
(assert (= x1 java.lang.StringBuffer))
(check-sat)
(pop)
(push)
(assert (not (= x1 java.lang.StringBuffer)))
(check-sat)
(pop)
(pop)
(push)
(assert (= x1 java.lang.String))
(check-sat)
(pop)
(push)
(assert (not (= x1 java.lang.String)))
(check-sat)
(push)
(assert (le x3 com.lowagie.text.pdf.ByteBuffer))
(check-sat)
(pop)
(push)
(assert (not (le x3 com.lowagie.text.pdf.ByteBuffer)))
(check-sat)
(pop)
(pop)
(push)
(assert (= x0 java.lang.StringBuffer))
(check-sat)
(pop)
(push)
(assert (not (= x0 java.lang.StringBuffer)))
(check-sat)
(pop)
(push)
(assert (= x4 java.lang.Integer))
(check-sat)
(pop)
(push)
(assert (not (= x4 java.lang.Integer)))
(check-sat)
(push)
(assert (= x0 java.lang.StringBuffer))
(check-sat)
(pop)
(push)
(assert (not (= x0 java.lang.StringBuffer)))
(check-sat)
(pop)
(pop)
(push)
(assert (le x0 com.lowagie.text.pdf.ByteBuffer))
(check-sat)
(pop)
(push)
(assert (not (le x0 com.lowagie.text.pdf.ByteBuffer)))
(check-sat)
(pop)
(pop)
(push)
(assert (= x7 java.lang.String))
(check-sat)
(pop)
(push)
(assert (not (= x7 java.lang.String)))
(check-sat)
(pop)
(push)
(assert (le x0 com.lowagie.text.pdf.IntHashtable_currencysign_Entry))
(check-sat)
(pop)
(push)
(assert (not (le x0 com.lowagie.text.pdf.IntHashtable_currencysign_Entry)))
(check-sat)
(pop)
(push)
(assert (le x2 com.lowagie.text.pdf.PdfObject))
(check-sat)
(pop)
(push)
(assert (not (le x2 com.lowagie.text.pdf.PdfObject)))
(check-sat)
(pop)
(push)
(assert (= x2 java.lang.StringBuffer))
(check-sat)
(pop)
(push)
(assert (not (= x2 java.lang.StringBuffer)))
(check-sat)
(push)
(assert (= x3 java.lang.String))
(check-sat)
(pop)
(push)
(assert (not (= x3 java.lang.String)))
(check-sat)
(pop)
(pop)
(pop)
(push)
(assert (not (le x6 com.lowagie.text.pdf.PdfObject)))
(check-sat)
(push)
(assert (= x2 java.lang.StringBuffer))
(check-sat)
(pop)
(push)
(assert (not (= x2 java.lang.StringBuffer)))
(check-sat)
(pop)
(push)
(assert (le x6 com.lowagie.text.pdf.PdfName))
(check-sat)
(pop)
(push)
(assert (not (le x6 com.lowagie.text.pdf.PdfName)))
(check-sat)
(pop)
(push)
(assert (= x4 java.lang.String))
(check-sat)
(pop)
(push)
(assert (not (= x4 java.lang.String)))
(check-sat)
(pop)
(pop)
(push)
(assert (= x0 java.lang.Integer))
(check-sat)
(push)
(assert (= x1 java.lang.Integer))
(check-sat)
(pop)
(push)
(assert (not (= x1 java.lang.Integer)))
(check-sat)
(push)
(assert (= x3 java.lang.String))
(check-sat)
(pop)
(push)
(assert (not (= x3 java.lang.String)))
(check-sat)
(pop)
(push)
(assert (= x1 java.lang.Integer))
(check-sat)
(pop)
(push)
(assert (not (= x1 java.lang.Integer)))
(check-sat)
(pop)
(pop)
(pop)
(push)
(assert (not (= x0 java.lang.Integer)))
(check-sat)
(push)
(assert (= x7 java.lang.String))
(check-sat)
(pop)
(push)
(assert (not (= x7 java.lang.String)))
(check-sat)
(pop)
(pop)
(push)
(assert (= x0 java.lang.StringBuffer))
(check-sat)
(pop)
(push)
(assert (not (= x0 java.lang.StringBuffer)))
(check-sat)
(pop)
(push)
(assert (= x1 java.lang.Integer))
(check-sat)
(push)
(assert (= x1 java.lang.Integer))
(check-sat)
(push)
(assert (= x5 java.lang.String))
(check-sat)
(pop)
(push)
(assert (not (= x5 java.lang.String)))
(check-sat)
(pop)
(push)
(assert (= x6 java.lang.Integer))
(check-sat)
(push)
(assert (= x0 java.lang.String))
(check-sat)
(pop)
(push)
(assert (not (= x0 java.lang.String)))
(check-sat)
(pop)
(pop)
(push)
(assert (not (= x6 java.lang.Integer)))
(check-sat)
(push)
(assert (= x2 java.lang.StringBuffer))
(check-sat)
(pop)
(push)
(assert (not (= x2 java.lang.StringBuffer)))
(check-sat)
(pop)
(push)
(assert (= x2 java.lang.StringBuffer))
(check-sat)
(pop)
(push)
(assert (not (= x2 java.lang.StringBuffer)))
(check-sat)
(pop)
(pop)
(pop)
(push)
(assert (not (= x1 java.lang.Integer)))
(check-sat)
(pop)
(push)
(assert (= x4 java.lang.String))
(check-sat)
(pop)
(push)
(assert (not (= x4 java.lang.String)))
(check-sat)
(push)
(assert (= x7 java.lang.String))
(check-sat)
(pop)
(push)
(assert (not (= x7 java.lang.String)))
(check-sat)
(pop)
(pop)
(push)
(assert (= x1 java.lang.Integer))
(check-sat)
(push)
(assert (= x7 java.lang.String))
(check-sat)
(pop)
(push)
(assert (not (= x7 java.lang.String)))
(check-sat)
(pop)
(pop)
(push)
(assert (not (= x1 java.lang.Integer)))
(check-sat)
(pop)
(push)
(assert (= x3 java.lang.StringBuffer))
(check-sat)
(push)
(assert (= x7 java.lang.String))
(check-sat)
(pop)
(push)
(assert (not (= x7 java.lang.String)))
(check-sat)
(pop)
(pop)
(push)
(assert (not (= x3 java.lang.StringBuffer)))
(check-sat)
(push)
(assert (= x1 java.lang.Integer))
(check-sat)
(pop)
(push)
(assert (not (= x1 java.lang.Integer)))
(check-sat)
(pop)
(pop)
(push)
(assert (= x7 java.lang.String))
(check-sat)
(pop)
(push)
(assert (not (= x7 java.lang.String)))
(check-sat)
(push)
(assert (= x1 java.lang.Integer))
(check-sat)
(pop)
(push)
(assert (not (= x1 java.lang.Integer)))
(check-sat)
(pop)
(pop)
(push)
(assert (le x7 com.lowagie.text.pdf.PdfObject))
(check-sat)
(pop)
(push)
(assert (not (le x7 com.lowagie.text.pdf.PdfObject)))
(check-sat)
(pop)
(push)
(assert (= x2 java.lang.StringBuffer))
(check-sat)
(pop)
(push)
(assert (not (= x2 java.lang.StringBuffer)))
(check-sat)
(push)
(assert (= x7 java.lang.String))
(check-sat)
(pop)
(push)
(assert (not (= x7 java.lang.String)))
(check-sat)
(push)
(assert (= x1 java.lang.Integer))
(check-sat)
(pop)
(push)
(assert (not (= x1 java.lang.Integer)))
(check-sat)
(pop)
(pop)
(pop)
(push)
(assert (= x6 java.lang.StringBuffer))
(check-sat)
(push)
(assert (= x1 java.lang.Integer))
(check-sat)
(pop)
(push)
(assert (not (= x1 java.lang.Integer)))
(check-sat)
(pop)
(pop)
(push)
(assert (not (= x6 java.lang.StringBuffer)))
(check-sat)
(pop)
(push)
(assert (= x7 java.lang.String))
(check-sat)
(pop)
(push)
(assert (not (= x7 java.lang.String)))
(check-sat)
(pop)
(push)
(assert (le x5 java.io.FileInputStream))
(check-sat)
(pop)
(push)
(assert (not (le x5 java.io.FileInputStream)))
(check-sat)
(pop)
(pop)
(push)
(assert (not (= x1 java.lang.Integer)))
(check-sat)
(push)
(assert (= x5 java.lang.StringBuffer))
(check-sat)
(push)
(assert (= x5 java.lang.StringBuffer))
(check-sat)
(push)
(assert (= x0 java.lang.StringBuffer))
(check-sat)
(pop)
(push)
(assert (not (= x0 java.lang.StringBuffer)))
(check-sat)
(pop)
(push)
(assert (= x6 java.lang.StringBuffer))
(check-sat)
(pop)
(push)
(assert (not (= x6 java.lang.StringBuffer)))
(check-sat)
(pop)
(pop)
(push)
(assert (not (= x5 java.lang.StringBuffer)))
(check-sat)
(pop)
(push)
(assert (= x7 java.lang.String))
(check-sat)
(pop)
(push)
(assert (not (= x7 java.lang.String)))
(check-sat)
(push)
(assert (le x0 com.lowagie.text.pdf.PdfObject))
(check-sat)
(pop)
(push)
(assert (not (le x0 com.lowagie.text.pdf.PdfObject)))
(check-sat)
(pop)
(pop)
(push)
(assert (= x0 java.lang.String))
(check-sat)
(pop)
(push)
(assert (not (= x0 java.lang.String)))
(check-sat)
(pop)
(pop)
(push)
(assert (not (= x5 java.lang.StringBuffer)))
(check-sat)
(push)
(assert (= x0 java.lang.StringBuffer))
(check-sat)
(push)
(assert (= x5 java.lang.StringBuffer))
(check-sat)
(pop)
(push)
(assert (not (= x5 java.lang.StringBuffer)))
(check-sat)
(pop)
(pop)
(push)
(assert (not (= x0 java.lang.StringBuffer)))
(check-sat)
(pop)
(pop)
(push)
(assert (= x7 java.lang.String))
(check-sat)
(pop)
(push)
(assert (not (= x7 java.lang.String)))
(check-sat)
(push)
(assert (le x0 java.nio.channels.FileChannel))
(check-sat)
(pop)
(push)
(assert (not (le x0 java.nio.channels.FileChannel)))
(check-sat)
(push)
(assert (= x7 java.lang.String))
(check-sat)
(pop)
(push)
(assert (not (= x7 java.lang.String)))
(check-sat)
(pop)
(pop)
(pop)
(push)
(assert (le x2 java.lang.Object))
(check-sat)
(push)
(assert (= x3 java.lang.StringBuffer))
(check-sat)
(push)
(assert (le x2 com.lowagie.text.pdf.PdfWriter_currencysign_PdfBody_currencysign_PdfCrossReference))
(check-sat)
(pop)
(push)
(assert (not (le x2 com.lowagie.text.pdf.PdfWriter_currencysign_PdfBody_currencysign_PdfCrossReference)))
(check-sat)
(pop)
(pop)
(push)
(assert (not (= x3 java.lang.StringBuffer)))
(check-sat)
(pop)
(pop)
(push)
(assert (not (le x2 java.lang.Object)))
(check-sat)
(push)
(assert (= x4 java.lang.String))
(check-sat)
(pop)
(push)
(assert (not (= x4 java.lang.String)))
(check-sat)
(pop)
(pop)
(push)
(assert (= x6 java.lang.StringBuffer))
(check-sat)
(pop)
(push)
(assert (not (= x6 java.lang.StringBuffer)))
(check-sat)
(pop)
(pop)
(push)
(assert (= x6 java.lang.String))
(check-sat)
(pop)
(push)
(assert (not (= x6 java.lang.String)))
(check-sat)
(pop)
(push)
(assert (= x5 java.lang.Integer))
(check-sat)
(push)
(assert (= x4 java.lang.StringBuffer))
(check-sat)
(pop)
(push)
(assert (not (= x4 java.lang.StringBuffer)))
(check-sat)
(pop)
(push)
(assert (= x3 java.lang.String))
(check-sat)
(pop)
(push)
(assert (not (= x3 java.lang.String)))
(check-sat)
(pop)
(push)
(assert (le x2 com.lowagie.text.pdf.PdfName))
(check-sat)
(push)
(assert (= x3 java.lang.StringBuffer))
(check-sat)
(pop)
(push)
(assert (not (= x3 java.lang.StringBuffer)))
(check-sat)
(pop)
(pop)
(push)
(assert (not (le x2 com.lowagie.text.pdf.PdfName)))
(check-sat)
(push)
(assert (= x3 java.lang.StringBuffer))
(check-sat)
(pop)
(push)
(assert (not (= x3 java.lang.StringBuffer)))
(check-sat)
(pop)
(pop)
(push)
(assert (= x4 java.lang.StringBuffer))
(check-sat)
(pop)
(push)
(assert (not (= x4 java.lang.StringBuffer)))
(check-sat)
(push)
(assert (= x2 java.lang.StringBuffer))
(check-sat)
(push)
(assert (= x2 java.lang.StringBuffer))
(check-sat)
(pop)
(push)
(assert (not (= x2 java.lang.StringBuffer)))
(check-sat)
(pop)
(pop)
(push)
(assert (not (= x2 java.lang.StringBuffer)))
(check-sat)
(pop)
(push)
(assert (= x7 java.lang.String))
(check-sat)
(pop)
(push)
(assert (not (= x7 java.lang.String)))
(check-sat)
(pop)
(pop)
(push)
(assert (le x2 com.lowagie.text.pdf.PdfObject))
(check-sat)
(pop)
(push)
(assert (not (le x2 com.lowagie.text.pdf.PdfObject)))
(check-sat)
(pop)
(push)
(assert (= x5 java.lang.Integer))
(check-sat)
(pop)
(push)
(assert (not (= x5 java.lang.Integer)))
(check-sat)
(pop)
(pop)
(push)
(assert (not (= x5 java.lang.Integer)))
(check-sat)
(pop)
(push)
(assert (= x5 java.lang.StringBuffer))
(check-sat)
(push)
(assert (= x7 java.lang.String))
(check-sat)
(pop)
(push)
(assert (not (= x7 java.lang.String)))
(check-sat)
(pop)
(push)
(assert (= x2 java.lang.StringBuffer))
(check-sat)
(pop)
(push)
(assert (not (= x2 java.lang.StringBuffer)))
(check-sat)
(pop)
(pop)
(push)
(assert (not (= x5 java.lang.StringBuffer)))
(check-sat)
(pop)
(pop)
